; Query 0 -- Type: InitialValues, Instructions: 13446
; This file conforms to SMTLIBv2 and was generated by KLEE
(set-logic QF_AUFBV )
; Array declarations
; Constraints
; Constraints and QueryExpr
(assert
        true
)
(check-sat)
(exit)
;   OK -- Elapsed: 5.759281e-03s
;   Solvable: true

; Query 1 -- Type: InitialValues, Instructions: 13446
; This file conforms to SMTLIBv2 and was generated by KLEE
(set-option :produce-models true)
(set-logic QF_AUFBV )
; Array declarations
(declare-fun CommBufferSize () (Array (_ BitVec 32) (_ BitVec 8) ) )
; Constraints
; Constraints and QueryExpr
(assert
        (= 
           (_ bv40 32)
           (concat 
                   (select 
                           CommBufferSize
                           (_ bv3 32)
                   )
                   (concat 
                           (select 
                                   CommBufferSize
                                   (_ bv2 32)
                           )
                           (concat 
                                   (select 
                                           CommBufferSize
                                           (_ bv1 32)
                                   )
                                   (select 
                                           CommBufferSize
                                           (_ bv0 32)
                                   )
                           )
                   )
           )
        )
)
(check-sat)
(get-value ( (select CommBufferSize (_ bv0 32) ) ) )
(get-value ( (select CommBufferSize (_ bv1 32) ) ) )
(get-value ( (select CommBufferSize (_ bv2 32) ) ) )
(get-value ( (select CommBufferSize (_ bv3 32) ) ) )
(get-value ( (select CommBufferSize (_ bv4 32) ) ) )
(get-value ( (select CommBufferSize (_ bv5 32) ) ) )
(get-value ( (select CommBufferSize (_ bv6 32) ) ) )
(get-value ( (select CommBufferSize (_ bv7 32) ) ) )
(exit)
;   OK -- Elapsed: 5.772384e-03s
;   Solvable: true
;     CommBufferSize = [40,0,0,0,0,0,0,0]

